peakDumbCharging = 25900; 
Machine = anon_enum(16); 
machineSpeed = [3700,3700,3700,3700,3700,3700,3700,3700,3700,3700,3700,3700,3700,3700,3700,3700]; 
machineLoad = [3700,3700,3700,3700,3700,3700,3700,3700,3700,3700,3700,3700,3700,3700,3700,3700]; 
Car = anon_enum(36); 
demandCar = [2280,9440,12680,1760,10200,29040,4920,4480,23160,5560,1480,9320,5480,13440,18880,3760,5400,9440,11920,20760,5280,1120,8640,29280,20160,360,5920,3280,6120,3720,9400,25680,5640,36360,25360,6400]; 
arrivalCar = [72,72,72,68,67,67,64,63,62,62,62,62,60,60,59,59,59,56,54,53,51,49,49,48,48,48,45,41,39,37,37,36,30,30,30,29]; 
departureCar = [74,75,76,70,71,78,67,65,72,67,65,69,63,67,66,61,62,62,61,61,55,51,52,62,60,51,49,44,47,40,40,45,33,50,46,32]; 
